90 362710
3 66 70 78 45 6 54 65 13 17 57 85 73 21 8 16 28 38 76 9 89 19 77 37 27 67 1 12 34 36 90 55 51 84 5 24 59 83 11 20 31 80 58 48 63 53 4 71 25 86 56 87 35 69 7 81 33 22 60 61 68 72 10 23 15 29 64 88 50 14 2 18 74 75 62 47 49 52 82 42 44 79 41 43 46 32 30 40 39 26 
